\ Model idol-model
\ LP format - for model browsing. Use MPS format to capture full model detail.
\ Signature: 0xd3a2f8ff855468ed
Minimize
  a_1 + a_4 + a_6 + a_7 + a_8 + a_9 + a_10 + a_11 + a_12 + a_13 + a_14
   + a_15 + a_16 + a_17 + a_18 + a_19 + a_20 + a_21 + a_22 + a_23 + a_24
   + a_25 + a_26 + a_27 + a_28 + a_29 + a_30 + a_31 + a_32 + a_33 + a_34
   + a_35 + a_36 + a_37 + a_38 + a_39 + a_40 + a_41 + a_42 + a_43 + a_44
   + a_45 + a_46 + a_47 + a_48 + a_49 + a_50 + a_51 + a_52 + a_53 + a_54
   + a_55 + a_56 + a_57 + a_58 + a_59 + a_60 + a_61 + a_62 + a_63 + a_64
   + a_65 + a_66 + a_67 + a_68 + a_69 + a_70 + a_71 + a_72 + a_73 + a_74
   + a_75 + a_76 + a_77 + a_78 + a_79 + a_80
Subject To
 Phi: y_1 + y_4 + y_6 + y_7 + y_8 + y_9 + y_10 + y_11 + y_12 + y_13 + y_14
   + y_15 + y_16 + y_17 + y_18 + y_19 + y_20 + y_21 + y_22 + y_23 + y_24
   + y_25 + y_26 + y_27 + y_28 + y_29 + y_30 + y_31 + y_32 + y_33 + y_34
   + y_35 + y_36 + y_37 + y_38 + y_39 + y_40 + y_41 + y_42 + y_43 + y_44
   + y_45 + y_46 + y_47 + y_48 + y_49 + y_50 + y_51 + y_52 + y_53 + y_54
   + y_55 + y_56 + y_57 + y_58 + y_59 + y_60 + y_61 + y_62 + y_63 + y_64
   + y_65 + y_66 + y_67 + y_68 + y_69 + y_70 + y_71 + y_72 + y_73 + y_74
   + y_75 + y_76 + y_77 + y_78 + y_79 + y_80 <= 3
 Lambda: x_1 + x_4 + x_6 + x_7 + x_8 + x_9 + x_10 + x_11 + x_12 + x_13
   + x_14 + x_15 + x_16 + x_17 + x_18 + x_19 + x_20 + x_21 + x_22 + x_23
   + x_24 + x_25 + x_26 + x_27 + x_28 + x_29 + x_30 + x_31 + x_32 + x_33
   + x_34 + x_35 + x_36 + x_37 + x_38 + x_39 + x_40 + x_41 + x_42 + x_43
   + x_44 + x_45 + x_46 + x_47 + x_48 + x_49 + x_50 + x_51 + x_52 + x_53
   + x_54 + x_55 + x_56 + x_57 + x_58 + x_59 + x_60 + x_61 + x_62 + x_63
   + x_64 + x_65 + x_66 + x_67 + x_68 + x_69 + x_70 + x_71 + x_72 + x_73
   + x_74 + x_75 + x_76 + x_77 + x_78 + x_79 + x_80 <= 1
 V1: a_1 + y_1 <= 1
 V4: a_4 + y_4 <= 1
 V6: a_6 + y_6 <= 1
 V7: a_7 + y_7 <= 1
 V8: a_8 + y_8 <= 1
 V9: a_9 + y_9 <= 1
 V10: a_10 + y_10 <= 1
 V11: a_11 + y_11 <= 1
 V12: a_12 + y_12 <= 1
 V13: a_13 + y_13 <= 1
 V14: a_14 + y_14 <= 1
 V15: a_15 + y_15 <= 1
 V16: a_16 + y_16 <= 1
 V17: a_17 + y_17 <= 1
 V18: a_18 + y_18 <= 1
 V19: a_19 + y_19 <= 1
 V20: a_20 + y_20 <= 1
 V21: a_21 + y_21 <= 1
 V22: a_22 + y_22 <= 1
 V23: a_23 + y_23 <= 1
 V24: a_24 + y_24 <= 1
 V25: a_25 + y_25 <= 1
 V26: a_26 + y_26 <= 1
 V27: a_27 + y_27 <= 1
 V28: a_28 + y_28 <= 1
 V29: a_29 + y_29 <= 1
 V30: a_30 + y_30 <= 1
 V31: a_31 + y_31 <= 1
 V32: a_32 + y_32 <= 1
 V33: a_33 + y_33 <= 1
 V34: a_34 + y_34 <= 1
 V35: a_35 + y_35 <= 1
 V36: a_36 + y_36 <= 1
 V37: a_37 + y_37 <= 1
 V38: a_38 + y_38 <= 1
 V39: a_39 + y_39 <= 1
 V40: a_40 + y_40 <= 1
 V41: a_41 + y_41 <= 1
 V42: a_42 + y_42 <= 1
 V43: a_43 + y_43 <= 1
 V44: a_44 + y_44 <= 1
 V45: a_45 + y_45 <= 1
 V46: a_46 + y_46 <= 1
 V47: a_47 + y_47 <= 1
 V48: a_48 + y_48 <= 1
 V49: a_49 + y_49 <= 1
 V50: a_50 + y_50 <= 1
 V51: a_51 + y_51 <= 1
 V52: a_52 + y_52 <= 1
 V53: a_53 + y_53 <= 1
 V54: a_54 + y_54 <= 1
 V55: a_55 + y_55 <= 1
 V56: a_56 + y_56 <= 1
 V57: a_57 + y_57 <= 1
 V58: a_58 + y_58 <= 1
 V59: a_59 + y_59 <= 1
 V60: a_60 + y_60 <= 1
 V61: a_61 + y_61 <= 1
 V62: a_62 + y_62 <= 1
 V63: a_63 + y_63 <= 1
 V64: a_64 + y_64 <= 1
 V65: a_65 + y_65 <= 1
 V66: a_66 + y_66 <= 1
 V67: a_67 + y_67 <= 1
 V68: a_68 + y_68 <= 1
 V69: a_69 + y_69 <= 1
 V70: a_70 + y_70 <= 1
 V71: a_71 + y_71 <= 1
 V72: a_72 + y_72 <= 1
 V73: a_73 + y_73 <= 1
 V74: a_74 + y_74 <= 1
 V75: a_75 + y_75 <= 1
 V76: a_76 + y_76 <= 1
 V77: a_77 + y_77 <= 1
 V78: a_78 + y_78 <= 1
 V79: a_79 + y_79 <= 1
 V80: a_80 + y_80 <= 1
 A8-6: a_6 - a_8 - x_6 <= 0
 A6-8: - a_6 + a_8 - x_8 <= 0
 A9-7: a_7 - a_9 - x_7 <= 0
 A7-9: - a_7 + a_9 - x_9 <= 0
 A10-9: a_9 - a_10 - x_9 <= 0
 A9-10: - a_9 + a_10 - x_10 <= 0
 A11-8: a_8 - a_11 - x_8 <= 0
 A8-11: - a_8 + a_11 - x_11 <= 0
 A13-7: a_7 - a_13 - x_7 <= 0
 A7-13: - a_7 + a_13 - x_13 <= 0
 A14-1: a_1 - a_14 - x_1 <= 0
 A1-14: - a_1 + a_14 - x_14 <= 0
 A16-9: a_9 - a_16 - x_9 <= 0
 A9-16: - a_9 + a_16 - x_16 <= 0
 A17-10: a_10 - a_17 - x_10 <= 0
 A10-17: - a_10 + a_17 - x_17 <= 0
 A18-16: a_16 - a_18 - x_16 <= 0
 A16-18: - a_16 + a_18 - x_18 <= 0
 A20-7: a_7 - a_20 - x_7 <= 0
 A7-20: - a_7 + a_20 - x_20 <= 0
 A21-17: a_17 - a_21 - x_17 <= 0
 A17-21: - a_17 + a_21 - x_21 <= 0
 A24-17: a_17 - a_24 - x_17 <= 0
 A17-24: - a_17 + a_24 - x_24 <= 0
 A26-24: a_24 - a_26 - x_24 <= 0
 A24-26: - a_24 + a_26 - x_26 <= 0
 A27-16: a_16 - a_27 - x_16 <= 0
 A16-27: - a_16 + a_27 - x_27 <= 0
 A29-12: a_12 - a_29 - x_12 <= 0
 A12-29: - a_12 + a_29 - x_29 <= 0
 A30-24: a_24 - a_30 - x_24 <= 0
 A24-30: - a_24 + a_30 - x_30 <= 0
 A31-24: a_24 - a_31 - x_24 <= 0
 A24-31: - a_24 + a_31 - x_31 <= 0
 A32-29: a_29 - a_32 - x_29 <= 0
 A29-32: - a_29 + a_32 - x_32 <= 0
 A33-26: a_26 - a_33 - x_26 <= 0
 A26-33: - a_26 + a_33 - x_33 <= 0
 A34-20: a_20 - a_34 - x_20 <= 0
 A20-34: - a_20 + a_34 - x_34 <= 0
 A35-30: a_30 - a_35 - x_30 <= 0
 A30-35: - a_30 + a_35 - x_35 <= 0
 A36-29: a_29 - a_36 - x_29 <= 0
 A29-36: - a_29 + a_36 - x_36 <= 0
 A37-15: a_15 - a_37 - x_15 <= 0
 A15-37: - a_15 + a_37 - x_37 <= 0
 A41-34: a_34 - a_41 - x_34 <= 0
 A34-41: - a_34 + a_41 - x_41 <= 0
 A42-37: a_37 - a_42 - x_37 <= 0
 A37-42: - a_37 + a_42 - x_42 <= 0
 A43-9: a_9 - a_43 - x_9 <= 0
 A9-43: - a_9 + a_43 - x_43 <= 0
 A44-42: a_42 - a_44 - x_42 <= 0
 A42-44: - a_42 + a_44 - x_44 <= 0
 A45-43: a_43 - a_45 - x_43 <= 0
 A43-45: - a_43 + a_45 - x_45 <= 0
 A46-36: a_36 - a_46 - x_36 <= 0
 A36-46: - a_36 + a_46 - x_46 <= 0
 A47-44: a_44 - a_47 - x_44 <= 0
 A44-47: - a_44 + a_47 - x_47 <= 0
 A48-4: a_4 - a_48 - x_4 <= 0
 A4-48: - a_4 + a_48 - x_48 <= 0
 A49-12: a_12 - a_49 - x_12 <= 0
 A12-49: - a_12 + a_49 - x_49 <= 0
 A50-1: a_1 - a_50 - x_1 <= 0
 A1-50: - a_1 + a_50 - x_50 <= 0
 A51-24: a_24 - a_51 - x_24 <= 0
 A24-51: - a_24 + a_51 - x_51 <= 0
 A52-37: a_37 - a_52 - x_37 <= 0
 A37-52: - a_37 + a_52 - x_52 <= 0
 A53-4: a_4 - a_53 - x_4 <= 0
 A4-53: - a_4 + a_53 - x_53 <= 0
 A54-6: a_6 - a_54 - x_6 <= 0
 A6-54: - a_6 + a_54 - x_54 <= 0
 A55-28: a_28 - a_55 - x_28 <= 0
 A28-55: - a_28 + a_55 - x_55 <= 0
 A56-23: a_23 - a_56 - x_23 <= 0
 A23-56: - a_23 + a_56 - x_56 <= 0
 A57-53: a_53 - a_57 - x_53 <= 0
 A53-57: - a_53 + a_57 - x_57 <= 0
 A58-50: a_50 - a_58 - x_50 <= 0
 A50-58: - a_50 + a_58 - x_58 <= 0
 A59-33: a_33 - a_59 - x_33 <= 0
 A33-59: - a_33 + a_59 - x_59 <= 0
 A60-30: a_30 - a_60 - x_30 <= 0
 A30-60: - a_30 + a_60 - x_60 <= 0
 A61-10: a_10 - a_61 - x_10 <= 0
 A10-61: - a_10 + a_61 - x_61 <= 0
 A62-48: a_48 - a_62 - x_48 <= 0
 A48-62: - a_48 + a_62 - x_62 <= 0
 A63-29: a_29 - a_63 - x_29 <= 0
 A29-63: - a_29 + a_63 - x_63 <= 0
 A64-54: a_54 - a_64 - x_54 <= 0
 A54-64: - a_54 + a_64 - x_64 <= 0
 A65-49: a_49 - a_65 - x_49 <= 0
 A49-65: - a_49 + a_65 - x_65 <= 0
 A66-4: a_4 - a_66 - x_4 <= 0
 A4-66: - a_4 + a_66 - x_66 <= 0
 A67-62: a_62 - a_67 - x_62 <= 0
 A62-67: - a_62 + a_67 - x_67 <= 0
 A68-8: a_8 - a_68 - x_8 <= 0
 A8-68: - a_8 + a_68 - x_68 <= 0
 A69-61: a_61 - a_69 - x_61 <= 0
 A61-69: - a_61 + a_69 - x_69 <= 0
 A70-17: a_17 - a_70 - x_17 <= 0
 A17-70: - a_17 + a_70 - x_70 <= 0
 A71-42: a_42 - a_71 - x_42 <= 0
 A42-71: - a_42 + a_71 - x_71 <= 0
 A72-58: a_58 - a_72 - x_58 <= 0
 A58-72: - a_58 + a_72 - x_72 <= 0
 A73-56: a_56 - a_73 - x_56 <= 0
 A56-73: - a_56 + a_73 - x_73 <= 0
 A74-4: a_4 - a_74 - x_4 <= 0
 A4-74: - a_4 + a_74 - x_74 <= 0
 A75-46: a_46 - a_75 - x_46 <= 0
 A46-75: - a_46 + a_75 - x_75 <= 0
 A76-15: a_15 - a_76 - x_15 <= 0
 A15-76: - a_15 + a_76 - x_76 <= 0
 A77-24: a_24 - a_77 - x_24 <= 0
 A24-77: - a_24 + a_77 - x_77 <= 0
 A78-73: a_73 - a_78 - x_73 <= 0
 A73-78: - a_73 + a_78 - x_78 <= 0
 A79-75: a_75 - a_79 - x_75 <= 0
 A75-79: - a_75 + a_79 - x_79 <= 0
 A80-68: a_68 - a_80 - x_68 <= 0
 A68-80: - a_68 + a_80 - x_80 <= 0
 c_590: - a_1 - a_4 - a_6 - a_7 - a_8 - a_9 - a_10 - a_11 - a_12 - a_13
   - a_14 - a_15 - a_16 - a_17 - a_18 - a_19 - a_20 - a_21 - a_22 - a_23
   - a_24 - a_25 - a_26 - a_27 - a_28 - a_29 - a_30 - a_31 - a_32 - a_33
   - a_34 - a_35 - a_36 - a_37 - a_38 - a_39 - a_40 - a_41 - a_42 - a_43
   - a_44 - a_45 - a_46 - a_47 - a_48 - a_49 - a_50 - a_51 - a_52 - a_53
   - a_54 - a_55 - a_56 - a_57 - a_58 - a_59 - a_60 - a_61 - a_62 - a_63
   - a_64 - a_65 - a_66 - a_67 - a_68 - a_69 - a_70 - a_71 - a_72 - a_73
   - a_74 - a_75 - a_76 - a_77 - a_78 - a_79 - a_80 <= 0
Bounds
Binaries
 a_1 a_4 a_6 a_7 a_8 a_9 a_10 a_11 a_12 a_13 a_14 a_15 a_16 a_17 a_18 a_19
 a_20 a_21 a_22 a_23 a_24 a_25 a_26 a_27 a_28 a_29 a_30 a_31 a_32 a_33 a_34
 a_35 a_36 a_37 a_38 a_39 a_40 a_41 a_42 a_43 a_44 a_45 a_46 a_47 a_48 a_49
 a_50 a_51 a_52 a_53 a_54 a_55 a_56 a_57 a_58 a_59 a_60 a_61 a_62 a_63 a_64
 a_65 a_66 a_67 a_68 a_69 a_70 a_71 a_72 a_73 a_74 a_75 a_76 a_77 a_78 a_79
 a_80 y_1 y_4 y_6 y_7 y_8 y_9 y_10 y_11 y_12 y_13 y_14 y_15 y_16 y_17 y_18
 y_19 y_20 y_21 y_22 y_23 y_24 y_25 y_26 y_27 y_28 y_29 y_30 y_31 y_32 y_33
 y_34 y_35 y_36 y_37 y_38 y_39 y_40 y_41 y_42 y_43 y_44 y_45 y_46 y_47 y_48
 y_49 y_50 y_51 y_52 y_53 y_54 y_55 y_56 y_57 y_58 y_59 y_60 y_61 y_62 y_63
 y_64 y_65 y_66 y_67 y_68 y_69 y_70 y_71 y_72 y_73 y_74 y_75 y_76 y_77 y_78
 y_79 y_80 x_1 x_4 x_6 x_7 x_8 x_9 x_10 x_11 x_12 x_13 x_14 x_15 x_16 x_17
 x_18 x_19 x_20 x_21 x_22 x_23 x_24 x_25 x_26 x_27 x_28 x_29 x_30 x_31 x_32
 x_33 x_34 x_35 x_36 x_37 x_38 x_39 x_40 x_41 x_42 x_43 x_44 x_45 x_46 x_47
 x_48 x_49 x_50 x_51 x_52 x_53 x_54 x_55 x_56 x_57 x_58 x_59 x_60 x_61 x_62
 x_63 x_64 x_65 x_66 x_67 x_68 x_69 x_70 x_71 x_72 x_73 x_74 x_75 x_76 x_77
 x_78 x_79 x_80
End
